NAME : single
TYPE : ATSP
DIMENSION : 11
EDGE_WEIGHT_TYPE : EXPLICIT
EDGE_WEIGHT_FORMAT : FULL_MATRIX
EDGE_WEIGHT_SECTION
0 822 899 878 877 789 730 499 437 459 9999900 
9999900 0 461 256 467 550 466 247 552 443 500 
9999900 461 0 204 99 104 163 339 319 382 421 
9999900 256 204 0 210 293 209 403 301 499 635 
9999900 467 99 210 0 82 199 396 310 360 619 
9999900 550 104 293 82 0 121 405 233 289 561 
9999900 466 163 209 199 121 0 322 178 289 529 
9999900 247 339 403 396 405 322 0 407 587 226 
9999900 552 319 301 310 233 178 407 0 204 620 
9999900 443 382 499 360 289 289 587 204 0 658 
0 9999900 9999900 9999900 9999900 9999900 9999900 9999900 9999900 9999900 0 
EOF